Geographic Exponential Decay
40 148 47 311 256 219 210 59 238 86 17 275 145 231 23 162 181 203 67 39 163 222 76 302 303 164 313 134 44 168 301 143 269 304 153 160 32 116 138 206 192
p edge 320 328
e 0 233 2.0
e 1 50 1.0
e 1 0 1.0
e 2 105 1.0
e 2 1 1.0
e 3 156 8.0
e 3 204 14.0
e 3 2 6.0
e 4 221 22.0
e 4 3 3.0
e 5 288 3.0
e 5 4 9.0
e 6 237 2.0
e 6 5 8.0
e 7 184 2.0
e 7 6 1.0
e 8 113 3.0
e 8 7 1.0
e 9 106 13.0
e 9 291 2.0
e 9 8 24.0
e 10 72 2.0
e 10 9 19.0
e 11 114 4.0
e 11 10 2.0
e 12 210 23.0
e 12 11 1.0
e 13 310 1.0
e 13 12 1.0
e 14 136 1.0
e 14 13 4.0
e 15 269 74.0
e 15 14 4.0
e 16 52 1.0
e 16 15 1.0
e 17 23 2.0
e 17 68 11.0
e 17 54 92.0
e 17 201 9.0
e 17 316 10.0
e 18 188 1.0
e 18 16 2.0
e 19 152 2.0
e 19 18 3.0
e 20 286 1.0
e 20 19 1.0
e 21 305 6.0
e 21 20 1.0
e 22 120 11.0
e 22 21 2.0
e 23 24 56.0
e 23 313 30.0
e 23 55 99.0
e 23 278 79.0
e 25 306 17.0
e 25 206 33.0
e 26 27 11.0
e 26 22 2.0
e 28 29 4.0
e 28 26 3.0
e 30 46 2.0
e 30 28 5.0
e 31 315 1.0
e 31 30 4.0
e 32 280 40.0
e 32 189 38.0
e 32 126 32.0
e 32 33 7.0
e 32 231 1.0
e 32 31 42.0
e 34 223 1.0
e 34 32 49.0
e 35 190 1.0
e 35 260 18.0
e 35 34 12.0
e 36 153 15.0
e 37 168 26.0
e 38 175 1.0
e 38 35 13.0
e 39 170 71.0
e 39 219 40.0
e 39 118 35.0
e 39 308 89.0
e 39 182 63.0
e 40 112 8.0
e 40 38 2.0
e 41 295 3.0
e 41 40 3.0
e 42 177 7.0
e 42 41 3.0
e 43 173 4.0
e 43 42 1.0
e 44 262 72.0
e 44 301 60.0
e 44 45 28.0
e 44 47 52.0
e 44 73 56.0
e 47 131 34.0
e 47 281 67.0
e 47 246 31.0
e 47 48 9.0
e 49 157 10.0
e 49 43 7.0
e 51 67 57.0
e 53 56 4.0
e 53 49 4.0
e 57 234 24.0
e 58 59 5.0
e 58 53 1.0
e 59 101 38.0
e 59 202 46.0
e 59 215 49.0
e 59 60 21.0
e 61 277 2.0
e 61 58 2.0
e 62 137 4.0
e 62 61 4.0
e 63 64 1.0
e 63 62 1.0
e 65 119 1.0
e 65 63 1.0
e 66 172 2.0
e 66 65 3.0
e 67 311 51.0
e 67 180 22.0
e 67 69 89.0
e 67 70 30.0
e 71 74 2.0
e 71 66 1.0
e 75 309 20.0
e 75 71 11.0
e 76 118 55.0
e 76 77 6.0
e 76 78 1.0
e 76 181 21.0
e 76 79 72.0
e 80 289 5.0
e 80 75 8.0
e 81 82 4.0
e 81 80 4.0
e 83 194 1.0
e 83 81 2.0
e 84 85 8.0
e 84 219 44.0
e 86 87 79.0
e 86 171 82.0
e 86 214 98.0
e 86 88 85.0
e 86 211 5.0
e 86 83 88.0
e 89 135 1.0
e 89 86 76.0
e 90 91 3.0
e 90 89 1.0
e 92 153 62.0
e 93 133 2.0
e 93 90 1.0
e 94 130 1.0
e 94 93 2.0
e 95 96 4.0
e 95 94 3.0
e 96 97 16.0
e 98 132 10.0
e 99 174 24.0
e 99 102 21.0
e 99 192 85.0
e 99 95 30.0
e 100 163 87.0
e 103 104 2.0
e 103 99 9.0
e 107 108 1.0
e 107 103 1.0
e 109 265 2.0
e 109 107 1.0
e 110 217 6.0
e 110 109 4.0
e 111 138 81.0
e 115 159 2.0
e 115 110 3.0
e 116 313 53.0
e 116 132 5.0
e 116 206 10.0
e 116 117 19.0
e 116 293 17.0
e 117 162 20.0
e 120 121 16.0
e 122 209 1.0
e 122 115 1.0
e 123 124 1.0
e 123 122 1.0
e 125 127 49.0
e 125 153 44.0
e 125 244 14.0
e 128 134 30.0
e 129 290 5.0
e 129 123 5.0
e 134 224 87.0
e 134 240 56.0
e 134 236 62.0
e 134 138 15.0
e 138 183 64.0
e 138 269 15.0
e 138 139 39.0
e 140 141 2.0
e 140 129 1.0
e 142 143 36.0
e 143 203 24.0
e 143 144 17.0
e 143 145 63.0
e 143 146 80.0
e 145 165 55.0
e 145 147 78.0
e 145 307 9.0
e 145 153 78.0
e 148 149 41.0
e 148 150 95.0
e 148 271 75.0
e 148 158 32.0
e 148 311 68.0
e 151 153 61.0
e 154 155 5.0
e 154 140 2.0
e 160 216 52.0
e 160 208 47.0
e 160 185 56.0
e 160 256 20.0
e 160 161 78.0
e 160 154 91.0
e 162 241 54.0
e 162 243 81.0
e 162 301 62.0
e 162 247 41.0
e 163 164 78.0
e 163 203 57.0
e 163 205 2.0
e 163 166 43.0
e 164 167 61.0
e 164 168 45.0
e 164 169 4.0
e 164 176 52.0
e 168 178 62.0
e 168 179 93.0
e 168 181 82.0
e 181 218 98.0
e 181 297 96.0
e 181 186 9.0
e 187 191 8.0
e 191 192 82.0
e 192 195 89.0
e 192 193 62.0
e 192 196 71.0
e 197 198 2.0
e 197 160 60.0
e 199 317 3.0
e 199 197 5.0
e 200 203 31.0
e 203 283 46.0
e 203 206 40.0
e 206 219 80.0
e 206 207 16.0
e 210 212 78.0
e 210 213 21.0
e 210 219 81.0
e 210 220 43.0
e 219 220 21.0
e 221 275 52.0
e 222 225 45.0
e 222 300 81.0
e 222 245 5.0
e 222 226 81.0
e 222 227 43.0
e 222 199 83.0
e 228 229 3.0
e 228 222 34.0
e 230 231 26.0
e 231 232 79.0
e 231 234 4.0
e 231 235 29.0
e 238 239 99.0
e 238 242 52.0
e 238 247 33.0
e 238 302 8.0
e 238 248 48.0
e 249 250 5.0
e 249 228 1.0
e 251 272 2.0
e 251 249 11.0
e 252 253 5.0
e 252 251 6.0
e 254 255 1.0
e 254 252 4.0
e 256 257 98.0
e 256 282 7.0
e 256 258 83.0
e 256 292 79.0
e 259 261 1.0
e 259 254 3.0
e 263 264 1.0
e 263 259 1.0
e 266 267 6.0
e 266 263 10.0
e 268 269 17.0
e 269 270 54.0
e 269 273 94.0
e 274 275 54.0
e 275 296 79.0
e 275 276 61.0
e 275 279 9.0
e 284 285 3.0
e 284 266 1.0
e 287 294 4.0
e 287 284 4.0
e 298 299 24.0
e 299 309 21.0
e 301 302 12.0
e 301 303 56.0
e 301 304 79.0
e 302 303 60.0
e 302 304 86.0
e 302 311 39.0
e 303 304 10.0
e 303 313 67.0
e 303 311 71.0
e 304 311 58.0
e 304 312 66.0
e 313 314 99.0
e 313 318 30.0
e 318 319 1.0
